<number of tasks>
20

<cycle time>
1000

<order strength>
0,289


<task times>
1 225
2 61
3 270
4 51
5 124
6 62
7 56
8 168
9 125
10 75
11 339
12 77
13 143
14 158
15 211
16 196
17 149
18 202
19 128
20 105

<precedence relations>
1,11
2,11
3,11
4,8
4,9
5,6
5,7
5,10
6,11
7,12
11,13
11,14
11,15
11,16
11,18
12,17
12,19
14,20

<end>
